benchmarks/bfuzz0/18821227391131286061326792293016190.smt2
(set-logic QF_FP)
(declare-const x0 (_ FloatingPoint 11 53))
(declare-const x1 (_ FloatingPoint 11 53))
(declare-const x2 (_ FloatingPoint 11 53))
(declare-const x3 (_ FloatingPoint 11 53))
(declare-const x4 (_ FloatingPoint 11 53))
(declare-const x5 (_ FloatingPoint 11 53))
(declare-const x6 (_ FloatingPoint 11 53))
(declare-const x7 (_ FloatingPoint 11 53))
(declare-const x8 (_ FloatingPoint 11 53))
(declare-const x9 (_ FloatingPoint 11 53))
(assert (fp.leq (fp.div RNE x4 x8) (fp.add RNE x9 x9)))
(assert (fp.leq (fp.neg x1) (fp.add RNE x8 x4)))
(assert (fp.gt (fp.add RNE x6 x6) (fp.neg x2)))
(assert (fp.gt (fp.neg x4) (fp.sub RNE x6 x4)))
(assert (fp.gt (fp.mul RNE x1 x6) (fp.neg x3)))
(assert (fp.gt (fp.mul RNE x1 x1) (fp.sub RNE x3 x6)))
(assert (fp.gt (fp.neg x4) (fp.neg x7)))
(assert (fp.eq (fp.neg x4) (fp.div RNE x1 x4)))
(assert (fp.eq (fp.neg x1) (fp.mul RNE x2 x8)))
(assert (fp.eq (fp.neg x9) (fp.sub RNE x4 x5)))
(assert (fp.leq (fp.add RNE x1 x8) (fp.add RNE x0 x6)))
(assert (fp.eq (fp.sub RNE x4 x8) (fp.sub RNE x9 x3)))
(assert (fp.geq (fp.div RNE x2 x8) (fp.mul RNE x8 x5)))
(assert (fp.lt (fp.add RNE x9 x8) (fp.div RNE x4 x0)))
(assert (fp.leq (fp.div RNE x1 x0) (fp.mul RNE x0 x2)))
(assert (fp.leq (fp.sub RNE x2 x8) (fp.sub RNE x7 x8)))
(assert (fp.geq (fp.sub RNE x6 x3) (fp.neg x2)))
(assert (fp.lt (fp.mul RNE x1 x7) (fp.add RNE x4 x4)))
(assert (fp.geq (fp.neg x4) (fp.sub RNE x0 x4)))
(assert (fp.gt (fp.mul RNE x9 x9) (fp.div RNE x5 x3)))
(check-sat)
