db/data/18821227391131286061326792293016190.z3.out
-------------------
2500.112336532
